27118
295,377,497,593,728,732,747,826,872,1236,1242,1251,1258,1295,1321,1505,1689,1723,1801,1890,1938,2182,2195,2358,2817,2879,2919,3001,3080,3137,3175,3213,3244,3408,3437,3493,3497,3708,3780,3791,3952,4001,4016,4045,4072,4157,4194,4342,4461,4532,4648,4792
